; PUSH 0x00 DUP2 SLOAD DUP2 LT ISZERO => PUSH 0x00 DUP2 SLOAD ISZERO
(set-option :produce-proofs true)
; 
(set-info :status unknown)
(declare-fun storage_t ((_ BitVec 256) (_ BitVec 256) Int (_ BitVec 256)) (_ BitVec 256))
(declare-fun storage_s ((_ BitVec 256) (_ BitVec 256) Int (_ BitVec 256)) (_ BitVec 256))
(declare-fun exc_halt_t (Int) Bool)
(declare-fun exc_halt_s (Int) Bool)
(declare-fun stack_t ((_ BitVec 256) (_ BitVec 256) Int (_ BitVec 6)) (_ BitVec 256))
(declare-fun stack_s ((_ BitVec 256) (_ BitVec 256) Int (_ BitVec 6)) (_ BitVec 256))
(declare-fun sc_t (Int) (_ BitVec 6))
(declare-fun sc_s (Int) (_ BitVec 6))
(declare-fun used_gas_t ((_ BitVec 256) (_ BitVec 256) Int) Int)
(declare-fun used_gas_s ((_ BitVec 256) (_ BitVec 256) Int) Int)
(assert
 (exists ((x_0 (_ BitVec 256)) (x_SLOAD_0 (_ BitVec 256)) )(let (($x8462 (forall ((w (_ BitVec 256)) )(let ((?x10646 (storage_t x_0 x_SLOAD_0 4 w)))
 (let ((?x1557 (storage_s x_0 x_SLOAD_0 6 w)))
 (= ?x1557 ?x10646))))
 ))
 (let (($x7854 (exc_halt_t 4)))
 (let (($x772 (exc_halt_s 6)))
 (let (($x4404 (= $x772 $x7854)))
 (let (($x712 (forall ((n (_ BitVec 6)) )(let ((?x3712 (stack_t x_0 x_SLOAD_0 4 n)))
 (let ((?x6060 (stack_s x_0 x_SLOAD_0 6 n)))
 (let (($x10283 (= ?x6060 ?x3712)))
 (let ((?x8101 (sc_t 4)))
 (let (($x4028 (bvsle ?x8101 n)))
 (or $x4028 $x10283)))))))
 ))
 (let ((?x8101 (sc_t 4)))
 (let ((?x926 (sc_s 6)))
 (let (($x8613 (= ?x926 ?x8101)))
 (let ((?x8768 (used_gas_t x_0 x_SLOAD_0 0)))
 (let ((?x9520 (used_gas_s x_0 x_SLOAD_0 0)))
 (let (($x11932 (= ?x9520 ?x8768)))
 (let (($x6154 (forall ((w (_ BitVec 256)) )(let ((?x1083 (storage_t x_0 x_SLOAD_0 0 w)))
 (let ((?x8154 (storage_s x_0 x_SLOAD_0 0 w)))
 (= ?x8154 ?x1083))))
 ))
 (let (($x56 (exc_halt_t 0)))
 (let (($x57 (exc_halt_s 0)))
 (let (($x58 (= $x57 $x56)))
 (let (($x8580 (forall ((n (_ BitVec 6)) )(let ((?x167 (stack_t x_0 x_SLOAD_0 0 n)))
 (let ((?x454 (stack_s x_0 x_SLOAD_0 0 n)))
 (let (($x5133 (= ?x454 ?x167)))
 (let ((?x63 (sc_t 0)))
 (let (($x632 (bvsle ?x63 n)))
 (or $x632 $x5133)))))))
 ))
 (let ((?x63 (sc_t 0)))
 (let ((?x72 (sc_s 0)))
 (let (($x73 (= ?x72 ?x63)))
 (let (($x6130 (= $x7854 (or (exc_halt_t 3) (not (bvsle (_ bv0 6) (bvadd (_ bv63 6) (sc_t 3))))))))
 (let (($x8220 (forall ((w (_ BitVec 256)) )(let ((?x2185 (storage_t x_0 x_SLOAD_0 3 w)))
 (let ((?x10646 (storage_t x_0 x_SLOAD_0 4 w)))
 (= ?x10646 ?x2185))))
 ))
 (let (($x2069 (forall ((n (_ BitVec 6)) )(let ((?x11964 (sc_t 3)))
 (let ((?x3587 (bvadd (_ bv63 6) ?x11964)))
 (let (($x2993 (bvsle ?x3587 n)))
 (or $x2993 (= (stack_t x_0 x_SLOAD_0 4 n) (stack_t x_0 x_SLOAD_0 3 n)))))))
 ))
 (let ((?x11964 (sc_t 3)))
 (let (($x1808 (= ?x8101 ?x11964)))
 (let (($x6075 (= (used_gas_t x_0 x_SLOAD_0 4) (+ 3 (used_gas_t x_0 x_SLOAD_0 3)))))
 (let (($x6880 (= (stack_t x_0 x_SLOAD_0 4 (bvadd (_ bv63 6) ?x8101)) (ite (= (stack_t x_0 x_SLOAD_0 3 (bvadd (_ bv63 6) ?x11964)) (_ bv0 256)) (_ bv1 256) (_ bv0 256)))))
 (let (($x4112 (exc_halt_t 3)))
 (let (($x3954 (= $x4112 (or (exc_halt_t 2) (not (bvsle (_ bv0 6) (bvadd (_ bv63 6) (sc_t 2))))))))
 (let (($x517 (forall ((w (_ BitVec 256)) )(let ((?x7617 (storage_t x_0 x_SLOAD_0 2 w)))
 (let ((?x2185 (storage_t x_0 x_SLOAD_0 3 w)))
 (= ?x2185 ?x7617))))
 ))
 (let (($x8080 (forall ((n (_ BitVec 6)) )(let ((?x6602 (sc_t 2)))
 (let ((?x8103 (bvadd (_ bv63 6) ?x6602)))
 (let (($x3046 (bvsle ?x8103 n)))
 (or (= (stack_t x_0 x_SLOAD_0 3 n) (stack_t x_0 x_SLOAD_0 2 n)) $x3046)))))
 ))
 (let ((?x6602 (sc_t 2)))
 (let (($x11444 (= ?x11964 ?x6602)))
 (let ((?x1124 (used_gas_t x_0 x_SLOAD_0 3)))
 (let ((?x8103 (bvadd (_ bv63 6) ?x6602)))
 (let ((?x11359 (stack_t x_0 x_SLOAD_0 2 ?x8103)))
 (let ((?x3587 (bvadd (_ bv63 6) ?x11964)))
 (let ((?x7388 (stack_t x_0 x_SLOAD_0 3 ?x3587)))
 (let (($x6468 (not (= ((_ extract 6 6) (bvadd (_ bv1 7) (concat (_ bv0 1) (sc_t 1)))) (_ bv0 1)))))
 (let (($x5011 (exc_halt_t 1)))
 (let (($x9181 (exc_halt_t 2)))
 (let (($x11256 (forall ((w (_ BitVec 256)) )(let ((?x8484 (storage_t x_0 x_SLOAD_0 1 w)))
 (let ((?x7617 (storage_t x_0 x_SLOAD_0 2 w)))
 (= ?x7617 ?x8484))))
 ))
 (let (($x2704 (forall ((n (_ BitVec 6)) )(or (bvsle (bvadd (_ bv62 6) (sc_t 1)) n) (= (stack_t x_0 x_SLOAD_0 2 n) (stack_t x_0 x_SLOAD_0 1 n))))
 ))
 (let (($x3613 (= ?x6602 (bvadd (_ bv1 6) (sc_t 1)))))
 (let ((?x6173 (used_gas_t x_0 x_SLOAD_0 2)))
 (let (($x11846 (= (stack_t x_0 x_SLOAD_0 2 (bvadd (_ bv63 6) (sc_t 1))) (stack_t x_0 x_SLOAD_0 1 (bvadd (_ bv63 6) (sc_t 1))))))
 (let ((?x6377 (sc_t 1)))
 (let ((?x5970 (bvadd (_ bv62 6) ?x6377)))
 (let ((?x9619 (stack_t x_0 x_SLOAD_0 1 ?x5970)))
 (let (($x7243 (= $x5011 (or $x56 (not (= ((_ extract 6 6) (bvadd (_ bv1 7) (concat (_ bv0 1) ?x63))) (_ bv0 1)))))))
 (let (($x8828 (forall ((w (_ BitVec 256)) )(let ((?x1083 (storage_t x_0 x_SLOAD_0 0 w)))
 (let ((?x8484 (storage_t x_0 x_SLOAD_0 1 w)))
 (= ?x8484 ?x1083))))
 ))
 (let (($x6366 (forall ((n (_ BitVec 6)) )(let ((?x63 (sc_t 0)))
 (let (($x632 (bvsle ?x63 n)))
 (or $x632 (= (stack_t x_0 x_SLOAD_0 1 n) (stack_t x_0 x_SLOAD_0 0 n))))))
 ))
 (let (($x11310 (= ?x6377 (bvadd (_ bv1 6) ?x63))))
 (let (($x1366 (= $x772 (or (exc_halt_s 5) (not (bvsle (_ bv0 6) (bvadd (_ bv63 6) (sc_s 5))))))))
 (let (($x5692 (forall ((w (_ BitVec 256)) )(let ((?x10946 (storage_s x_0 x_SLOAD_0 5 w)))
 (let ((?x1557 (storage_s x_0 x_SLOAD_0 6 w)))
 (= ?x1557 ?x10946))))
 ))
 (let (($x10758 (forall ((n (_ BitVec 6)) )(let ((?x4319 (sc_s 5)))
 (let ((?x4847 (bvadd (_ bv63 6) ?x4319)))
 (let (($x3030 (bvsle ?x4847 n)))
 (or (= (stack_s x_0 x_SLOAD_0 6 n) (stack_s x_0 x_SLOAD_0 5 n)) $x3030)))))
 ))
 (let ((?x4319 (sc_s 5)))
 (let (($x9992 (= ?x926 ?x4319)))
 (let (($x6252 (= (used_gas_s x_0 x_SLOAD_0 6) (+ 3 (used_gas_s x_0 x_SLOAD_0 5)))))
 (let (($x1703 (= (stack_s x_0 x_SLOAD_0 6 (bvadd (_ bv63 6) ?x926)) (ite (= (stack_s x_0 x_SLOAD_0 5 (bvadd (_ bv63 6) ?x4319)) (_ bv0 256)) (_ bv1 256) (_ bv0 256)))))
 (let (($x1862 (exc_halt_s 5)))
 (let (($x5223 (= $x1862 (or (exc_halt_s 4) (not (bvsle (_ bv0 6) (bvadd (_ bv62 6) (sc_s 4))))))))
 (let (($x2552 (forall ((w (_ BitVec 256)) )(let ((?x1355 (storage_s x_0 x_SLOAD_0 4 w)))
 (let ((?x10946 (storage_s x_0 x_SLOAD_0 5 w)))
 (= ?x10946 ?x1355))))
 ))
 (let (($x10211 (forall ((n (_ BitVec 6)) )(let ((?x500 (sc_s 4)))
 (let ((?x7626 (bvadd (_ bv62 6) ?x500)))
 (let (($x2358 (bvsle ?x7626 n)))
 (or $x2358 (= (stack_s x_0 x_SLOAD_0 5 n) (stack_s x_0 x_SLOAD_0 4 n)))))))
 ))
 (let ((?x500 (sc_s 4)))
 (let ((?x4132 (bvadd (_ bv63 6) ?x500)))
 (let (($x11284 (= ?x4319 ?x4132)))
 (let ((?x5671 (used_gas_s x_0 x_SLOAD_0 5)))
 (let ((?x1958 (stack_s x_0 x_SLOAD_0 4 ?x4132)))
 (let ((?x2893 (ite (bvule (stack_s x_0 x_SLOAD_0 4 (bvadd (_ bv62 6) ?x500)) ?x1958) (_ bv0 256) (_ bv1 256))))
 (let ((?x4847 (bvadd (_ bv63 6) ?x4319)))
 (let ((?x11699 (stack_s x_0 x_SLOAD_0 5 ?x4847)))
 (let (($x8780 (exc_halt_s 3)))
 (let (($x5641 (not (bvsle (_ bv0 6) (bvadd (_ bv62 6) (sc_s 3))))))
 (let (($x8246 (or $x5641 $x8780 (not (= ((_ extract 6 6) (bvadd (_ bv1 7) (concat (_ bv0 1) (sc_s 3)))) (_ bv0 1))))))
 (let (($x3743 (exc_halt_s 4)))
 (let (($x8180 (forall ((w (_ BitVec 256)) )(let ((?x4389 (storage_s x_0 x_SLOAD_0 3 w)))
 (let ((?x1355 (storage_s x_0 x_SLOAD_0 4 w)))
 (= ?x1355 ?x4389))))
 ))
 (let (($x11526 (forall ((n (_ BitVec 6)) )(let ((?x1974 (sc_s 3)))
 (let ((?x7556 (bvadd (_ bv62 6) ?x1974)))
 (let (($x4724 (bvsle ?x7556 n)))
 (or $x4724 (= (stack_s x_0 x_SLOAD_0 4 n) (stack_s x_0 x_SLOAD_0 3 n)))))))
 ))
 (let ((?x3690 (used_gas_s x_0 x_SLOAD_0 4)))
 (let ((?x1974 (sc_s 3)))
 (let ((?x2640 (bvadd (_ bv63 6) ?x1974)))
 (let ((?x2157 (stack_s x_0 x_SLOAD_0 3 ?x2640)))
 (let ((?x7556 (bvadd (_ bv62 6) ?x1974)))
 (let ((?x1983 (stack_s x_0 x_SLOAD_0 3 ?x7556)))
 (let (($x9534 (= $x8780 (or (exc_halt_s 2) (not (bvsle (_ bv0 6) (bvadd (_ bv63 6) (sc_s 2))))))))
 (let (($x6315 (forall ((w (_ BitVec 256)) )(let ((?x6026 (storage_s x_0 x_SLOAD_0 2 w)))
 (let ((?x4389 (storage_s x_0 x_SLOAD_0 3 w)))
 (= ?x4389 ?x6026))))
 ))
 (let (($x7437 (forall ((n (_ BitVec 6)) )(let ((?x2620 (sc_s 2)))
 (let ((?x5957 (bvadd (_ bv63 6) ?x2620)))
 (let (($x9374 (bvsle ?x5957 n)))
 (or (= (stack_s x_0 x_SLOAD_0 3 n) (stack_s x_0 x_SLOAD_0 2 n)) $x9374)))))
 ))
 (let ((?x2620 (sc_s 2)))
 (let (($x7925 (= ?x1974 ?x2620)))
 (let ((?x8714 (used_gas_s x_0 x_SLOAD_0 3)))
 (let ((?x5957 (bvadd (_ bv63 6) ?x2620)))
 (let ((?x9114 (stack_s x_0 x_SLOAD_0 2 ?x5957)))
 (let (($x10558 (exc_halt_s 1)))
 (let (($x10267 (not (= ((_ extract 6 6) (bvadd (_ bv1 7) (concat (_ bv0 1) (sc_s 1)))) (_ bv0 1)))))
 (let (($x3200 (exc_halt_s 2)))
 (let (($x10479 (forall ((w (_ BitVec 256)) )(let ((?x6912 (storage_s x_0 x_SLOAD_0 1 w)))
 (let ((?x6026 (storage_s x_0 x_SLOAD_0 2 w)))
 (= ?x6026 ?x6912))))
 ))
 (let (($x840 (forall ((n (_ BitVec 6)) )(or (bvsle (bvadd (_ bv62 6) (sc_s 1)) n) (= (stack_s x_0 x_SLOAD_0 2 n) (stack_s x_0 x_SLOAD_0 1 n))))
 ))
 (let (($x10641 (= ?x2620 (bvadd (_ bv1 6) (sc_s 1)))))
 (let ((?x3043 (used_gas_s x_0 x_SLOAD_0 2)))
 (let (($x5191 (= (stack_s x_0 x_SLOAD_0 2 (bvadd (_ bv63 6) (sc_s 1))) (stack_s x_0 x_SLOAD_0 1 (bvadd (_ bv63 6) (sc_s 1))))))
 (let ((?x154 (sc_s 1)))
 (let ((?x2147 (bvadd (_ bv62 6) ?x154)))
 (let ((?x7396 (stack_s x_0 x_SLOAD_0 1 ?x2147)))
 (let (($x5896 (= $x10558 (or $x57 (not (= ((_ extract 6 6) (bvadd (_ bv1 7) (concat (_ bv0 1) ?x72))) (_ bv0 1)))))))
 (let (($x10028 (forall ((w (_ BitVec 256)) )(let ((?x8154 (storage_s x_0 x_SLOAD_0 0 w)))
 (let ((?x6912 (storage_s x_0 x_SLOAD_0 1 w)))
 (= ?x6912 ?x8154))))
 ))
 (let (($x3328 (forall ((n (_ BitVec 6)) )(let ((?x72 (sc_s 0)))
 (let (($x10377 (bvsle ?x72 n)))
 (or (= (stack_s x_0 x_SLOAD_0 1 n) (stack_s x_0 x_SLOAD_0 0 n)) $x10377))))
 ))
 (let (($x7558 (= ?x154 (bvadd (_ bv1 6) ?x72))))
 (let (($x9924 (forall ((w (_ BitVec 256)) )(let ((?x11313 (ite (= w (stack_s x_0 x_SLOAD_0 2 (bvadd (_ bv63 6) (sc_s 2)))) x_SLOAD_0 (_ bv0 256))))
 (let ((?x8154 (storage_s x_0 x_SLOAD_0 0 w)))
 (= ?x8154 ?x11313))))
 ))
 (let (($x163 (= ?x9520 0)))
 (let (($x10917 (not $x57)))
 (let (($x10487 (= (stack_s x_0 x_SLOAD_0 0 (_ bv0 6)) x_0)))
 (let (($x87 (= ?x72 (_ bv1 6))))
 (and $x87 $x10487 $x10917 $x163 $x9924 (= (stack_s x_0 x_SLOAD_0 1 ?x72) (_ bv0 256)) (= (used_gas_s x_0 x_SLOAD_0 1) (+ 3 ?x9520)) $x7558 $x3328 $x10028 $x5896 (= ?x9114 ?x7396) (= (stack_s x_0 x_SLOAD_0 2 ?x2147) ?x7396) $x5191 (= ?x3043 (+ 3 (used_gas_s x_0 x_SLOAD_0 1))) $x10641 $x840 $x10479 (= $x3200 (or (not (bvsle (_ bv0 6) ?x2147)) $x10267 $x10558)) (= ?x2157 (storage_s x_0 x_SLOAD_0 2 ?x9114)) (= ?x8714 (+ 200 ?x3043)) $x7925 $x7437 $x6315 $x9534 (= ?x1958 ?x1983) (= (stack_s x_0 x_SLOAD_0 4 ?x7556) ?x1983) (= (stack_s x_0 x_SLOAD_0 4 ?x2640) ?x2157) (= ?x3690 (+ 3 ?x8714)) (= ?x500 (bvadd (_ bv1 6) ?x1974)) $x11526 $x8180 (= $x3743 $x8246) (= ?x11699 ?x2893) (= ?x5671 (+ 3 ?x3690)) $x11284 $x10211 $x2552 $x5223 $x1703 $x6252 $x9992 $x10758 $x5692 $x1366 (= (stack_t x_0 x_SLOAD_0 1 ?x63) (_ bv0 256)) (= (used_gas_t x_0 x_SLOAD_0 1) (+ 3 ?x8768)) $x11310 $x6366 $x8828 $x7243 (= ?x11359 ?x9619) (= (stack_t x_0 x_SLOAD_0 2 ?x5970) ?x9619) $x11846 (= ?x6173 (+ 3 (used_gas_t x_0 x_SLOAD_0 1))) $x3613 $x2704 $x11256 (= $x9181 (or $x5011 $x6468 (not (bvsle (_ bv0 6) ?x5970)))) (= ?x7388 (storage_t x_0 x_SLOAD_0 2 ?x11359)) (= ?x1124 (+ 200 ?x6173)) $x11444 $x8080 $x517 $x3954 $x6880 $x6075 $x1808 $x2069 $x8220 $x6130 $x73 $x8580 $x58 $x6154 $x11932 (not (and $x8613 $x712 $x4404 $x8462)))))))))))))))))))))))))))))))))))))))))))))))))))))))))))))))))))))))))))))))))))))))))))))))))))))))))))))))))))
 )
(check-sat)
(get-proof)
